c description: Random 3-CNF over 12 variables and 24 clauses
p cnf 12 24
1 8 -12 0
-3 -9 12 0
-5 6 -7 0
-2 -7 11 0
1 3 -4 0
-7 -10 -12 0
-1 -5 -11 0
2 9 -12 0
-1 -7 8 0
3 -7 8 0
5 -9 -10 0
-3 -9 10 0
6 7 -10 0
-1 -5 -6 0
1 -5 8 0
1 -10 11 0
1 -3 -4 0
-1 4 -10 0
4 8 11 0
7 -9 -12 0
1 -6 9 0
-4 -10 11 0
-5 -6 12 0
6 9 11 0